10 10 3

0 498 183 495 176 372 364 312 464 230 
441 0 136 159 438 406 439 376 470 176 
403 430 0 246 357 359 420 338 403 319 
219 370 236 0 161 367 369 362 493 241 
225 60 411 405 0 451 253 63 144 365 
209 227 334 91 129 0 470 494 436 328 
413 480 438 231 199 63 0 417 310 136 
493 378 128 440 102 345 106 0 213 51 
309 433 145 173 141 78 214 389 0 157 
183 382 300 462 294 279 155 232 428 0 

318.78 0 1
318.78 1 0
318.78 2 0
318.78 3 1
318.78 4 5
318.78 5 8
318.78 6 8
318.78 7 0
318.78 8 7
318.78 9 6

